(set-info :smt-lib-version 2.6)
(set-logic QF_UFLRA)
(set-info :source |
MathSat group

|)
(set-info :category "random")
(set-info :status sat)
(declare-fun x0 () Real)
(declare-fun x1 () Real)
(declare-fun x2 () Real)
(declare-fun x3 () Real)
(declare-fun x4 () Real)
(declare-fun x5 () Real)
(declare-fun x6 () Real)
(declare-fun x7 () Real)
(declare-fun x8 () Real)
(declare-fun x9 () Real)
(declare-fun x10 () Real)
(declare-fun x11 () Real)
(declare-fun x12 () Real)
(declare-fun x13 () Real)
(declare-fun x14 () Real)
(declare-fun x15 () Real)
(declare-fun x16 () Real)
(declare-fun x17 () Real)
(declare-fun x18 () Real)
(declare-fun x19 () Real)
(declare-fun x20 () Real)
(declare-fun x21 () Real)
(declare-fun x22 () Real)
(declare-fun x23 () Real)
(declare-fun x24 () Real)
(declare-fun x25 () Real)
(declare-fun x26 () Real)
(declare-fun x27 () Real)
(declare-fun x28 () Real)
(declare-fun x29 () Real)
(declare-fun x30 () Real)
(declare-fun x31 () Real)
(declare-fun x32 () Real)
(declare-fun x33 () Real)
(declare-fun x34 () Real)
(declare-fun x35 () Real)
(declare-fun x36 () Real)
(declare-fun x37 () Real)
(declare-fun x38 () Real)
(declare-fun x39 () Real)
(declare-fun x40 () Real)
(declare-fun x41 () Real)
(declare-fun x42 () Real)
(declare-fun x43 () Real)
(declare-fun x44 () Real)
(declare-fun x45 () Real)
(declare-fun x46 () Real)
(declare-fun x47 () Real)
(declare-fun x48 () Real)
(declare-fun x49 () Real)
(declare-fun f0_1 (Real) Real)
(declare-fun f0_2 (Real Real) Real)
(declare-fun f0_3 (Real Real Real) Real)
(declare-fun f0_4 (Real Real Real Real) Real)
(declare-fun P0 () Bool)
(declare-fun P1 () Bool)
(declare-fun P2 () Bool)
(declare-fun P3 () Bool)
(declare-fun P4 () Bool)
(declare-fun P5 () Bool)
(declare-fun P6 () Bool)
(declare-fun P7 () Bool)
(declare-fun P8 () Bool)
(declare-fun P9 () Bool)
(declare-fun P10 () Bool)
(declare-fun P11 () Bool)
(declare-fun P12 () Bool)
(declare-fun P13 () Bool)
(declare-fun P14 () Bool)
(declare-fun P15 () Bool)
(declare-fun P16 () Bool)
(declare-fun P17 () Bool)
(declare-fun P18 () Bool)
(declare-fun P19 () Bool)
(declare-fun P20 () Bool)
(declare-fun P21 () Bool)
(declare-fun P22 () Bool)
(declare-fun P23 () Bool)
(declare-fun P24 () Bool)
(declare-fun P25 () Bool)
(declare-fun P26 () Bool)
(declare-fun P27 () Bool)
(declare-fun P28 () Bool)
(declare-fun P29 () Bool)
(declare-fun P30 () Bool)
(declare-fun P31 () Bool)
(declare-fun P32 () Bool)
(declare-fun P33 () Bool)
(declare-fun P34 () Bool)
(declare-fun P35 () Bool)
(declare-fun P36 () Bool)
(declare-fun P37 () Bool)
(declare-fun P38 () Bool)
(declare-fun P39 () Bool)
(declare-fun P40 () Bool)
(declare-fun P41 () Bool)
(declare-fun P42 () Bool)
(declare-fun P43 () Bool)
(declare-fun P44 () Bool)
(declare-fun P45 () Bool)
(declare-fun P46 () Bool)
(declare-fun P47 () Bool)
(declare-fun P48 () Bool)
(declare-fun P49 () Bool)
(assert (let ((?v_100 (* 21 x20)) (?v_175 (* 3 x10))) (let ((?v_90 (< (- (- (* 19 x27) (* 23 x32)) ?v_175) 28)) (?v_48 (* 11 x23)) (?v_224 (= (- (+ (* 18 x23) (* 16 x33)) (* 13 x7)) 26)) (?v_47 (* 19 x16)) (?v_73 (* 5 x14)) (?v_95 (* 17 x47))) (let ((?v_36 (< (- (+ (* 25 x41) (* 14 x33)) ?v_73) 23)) (?v_118 (< (- (+ (* 6 x15) (* 12 x42)) (* 25 x1)) 4)) (?v_80 (<= (- (+ (* 17 x9) (* 4 x16)) (* 26 x47)) 12)) (?v_85 (< (- (+ (* 15 x33) (* 3 x4)) (* 19 x22)) 9)) (?v_135 (= (f0_2 x41 x24) (f0_1 x5))) (?v_74 (distinct x3 (f0_2 x49 x11))) (?v_184 (distinct (f0_2 x32 x36) (f0_2 x6 x40))) (?v_27 (distinct x18 x23)) (?v_52 (f0_1 x16))) (let ((?v_127 (= ?v_52 (f0_1 x3))) (?v_88 (distinct (f0_1 x31) (f0_2 x4 x14))) (?v_12 (= x28 (f0_2 x9 x36))) (?v_55 (distinct x37 (f0_2 x29 x17))) (?v_96 (= (f0_1 x13) x20)) (?v_177 (distinct x47 (f0_2 x42 x12))) (?v_212 (distinct (f0_2 x1 x49) x3)) (?v_53 (= (f0_2 x17 x48) (f0_2 x26 x24))) (?v_61 (= (f0_1 x7) x6)) (?v_233 (= x48 x10)) (?v_1 (distinct x19 (f0_1 x29))) (?v_42 (f0_1 x11))) (let ((?v_168 (distinct ?v_42 x42)) (?v_44 (= (f0_2 x32 x41) (f0_1 x10))) (?v_126 (= x1 (f0_2 x36 x33))) (?v_2 (distinct (f0_1 x45) x39)) (?v_17 (distinct (f0_2 x46 x37) (f0_2 x43 x9))) (?v_114 (distinct x24 (f0_2 x10 x18))) (?v_26 (f0_1 x46))) (let ((?v_56 (= ?v_26 (f0_2 x35 x9))) (?v_166 (= (f0_1 x15) x10)) (?v_136 (distinct (f0_2 x9 x10) (f0_1 x27))) (?v_0 (= x49 x37)) (?v_38 (distinct x37 (f0_2 x26 x27))) (?v_242 (distinct x14 (f0_2 x4 x19))) (?v_6 (= (f0_2 x15 x12) (f0_2 x31 x6))) (?v_29 (= (f0_2 x39 x21) x26)) (?v_10 (distinct x48 (f0_1 x48))) (?v_138 (= x9 x19)) (?v_107 (distinct (f0_2 x13 x40) x19)) (?v_170 (= (f0_2 x29 x49) (f0_1 x21))) (?v_82 (f0_1 x28))) (let ((?v_109 (= (f0_1 x20) ?v_82)) (?v_143 (= (f0_2 x3 x37) (f0_2 x16 x6))) (?v_67 (= (f0_1 x23) x20)) (?v_149 (= (f0_1 x32) ?v_42)) (?v_144 (= (f0_1 x47) x19)) (?v_57 (distinct ?v_26 (f0_2 x26 x0))) (?v_77 (distinct (f0_2 x6 x13) (f0_1 x9))) (?v_70 (= x38 x35)) (?v_28 (distinct (f0_1 x40) (f0_1 x2))) (?v_214 (distinct x11 (f0_1 x6))) (?v_161 (= x11 x24)) (?v_13 (= (f0_2 x43 x15) (f0_2 x20 x25))) (?v_32 (= (f0_1 x25) x34)) (?v_35 (distinct (f0_2 x25 x4) x11)) (?v_123 (distinct x25 (f0_1 x36))) (?v_41 (distinct x38 ?v_52)) (?v_213 (= (f0_2 x26 x14) ?v_82))) (let ((?v_3 (not ?v_57)) (?v_60 (not P3)) (?v_190 (not ?v_88)) (?v_201 (not ?v_1)) (?v_62 (not P19)) (?v_108 (not P39)) (?v_142 (not P32)) (?v_102 (not P18)) (?v_151 (not P9)) (?v_16 (not ?v_35)) (?v_72 (not P41)) (?v_195 (not P5)) (?v_4 (not ?v_177)) (?v_199 (not P24)) (?v_92 (not ?v_96)) (?v_99 (not ?v_12)) (?v_244 (not P8)) (?v_40 (not P33)) (?v_33 (not ?v_123)) (?v_14 (not P1)) (?v_222 (not ?v_0)) (?v_131 (not P36)) (?v_15 (not ?v_74)) (?v_20 (not ?v_242)) (?v_18 (not ?v_10)) (?v_157 (not ?v_161)) (?v_22 (not ?v_41)) (?v_186 (not P30)) (?v_146 (not P13)) (?v_54 (not P4)) (?v_37 (not ?v_77)) (?v_133 (not ?v_149)) (?v_65 (not P23)) (?v_121 (not P48)) (?v_105 (not ?v_144)) (?v_132 (not ?v_213)) (?v_113 (not ?v_29)) (?v_76 (not P28)) (?v_176 (not ?v_36)) (?v_150 (not ?v_28)) (?v_181 (not ?v_27)) (?v_148 (not ?v_38)) (?v_94 (not ?v_166)) (?v_178 (not ?v_17)) (?v_117 (not P38)) (?v_158 (not ?v_32)) (?v_141 (not ?v_80)) (?v_124 (not P27)) (?v_115 (not ?v_233)) (?v_79 (not ?v_127)) (?v_71 (not ?v_53)) (?v_140 (not ?v_56)) (?v_122 (not ?v_107)) (?v_252 (not P6)) (?v_229 (not ?v_67)) (?v_200 (not ?v_85)) (?v_240 (not ?v_212)) (?v_116 (not ?v_70)) (?v_217 (not P22)) (?v_185 (not P17)) (?v_111 (not P31)) (?v_98 (not P37)) (?v_84 (not P25)) (?v_83 (not ?v_109)) (?v_91 (not ?v_44)) (?v_182 (not P7)) (?v_119 (not ?v_90)) (?v_128 (not ?v_118)) (?v_125 (not P2)) (?v_193 (not P29)) (?v_152 (not ?v_61)) (?v_211 (not ?v_6)) (?v_198 (not ?v_126)) (?v_210 (not ?v_136)) (?v_159 (not P26)) (?v_223 (not P11)) (?v_171 (not ?v_143)) (?v_254 (not P45)) (?v_219 (not P0)) (?v_172 (not P49)) (?v_215 (not P44)) (?v_247 (not P16)) (?v_220 (not P20)) (?v_196 (not P42)) (?v_203 (not ?v_168)) (?v_245 (not P14)) (?v_197 (not ?v_135)) (?v_206 (not ?v_224)) (?v_207 (not P46)) (?v_225 (not P21)) (?v_187 (not P47)) (?v_238 (not ?v_184)) (?v_230 (not P35)) (?v_239 (not ?v_2)) (?v_218 (not P10)) (?v_209 (not P34)) (?v_246 (not ?v_170)) (?v_235 (not P40)) (?v_216 (not ?v_214)) (?v_228 (not ?v_13)) (?v_236 (not P15)) (?v_253 (not P12)) (?v_241 (not ?v_55)) (?v_256 (not P43)) (?v_255 (not ?v_114)) (?v_19 (< (- (- 0 (* 26 x32)) 0) 25)) (?v_7 (<= (- (- x16 (* 18 x11)) (* 12 x19)) 24))) (let ((?v_93 (not ?v_7)) (?v_34 (< (+ (* 24 x21) (* 25 x19) (* 2 x16)) 3)) (?v_50 (< (+ (- x9 0) (* 27 x48)) 4))) (let ((?v_63 (not ?v_50)) (?v_30 (= (- (* 6 x23) (* 16 x31)) 28))) (let ((?v_179 (not ?v_30)) (?v_58 (<= (- (* 24 x4) (* 16 x48)) 29)) (?v_46 (<= (- (* 16 x24) (* 21 x49)) 6))) (let ((?v_86 (not ?v_46)) (?v_153 (not ?v_19)) (?v_69 (< (- ?v_47 ?v_48) 3))) (let ((?v_249 (not ?v_69)) (?v_227 (not ?v_58)) (?v_137 (not ?v_34)) (?v_139 (<= (- ?v_95 ?v_95) 9))) (let ((?v_154 (not ?v_139)) (?v_192 (<= (+ (* 15 x32) (* 26 x29)) 16))) (let ((?v_173 (not ?v_192)) (?v_112 (< (- (- (* (- 20) x17) (* 8 x43)) (* 19 x10)) (- 25))) (?v_5 (= (- (+ (* (- 3) x6) (* 15 x25)) (* 12 x14)) (- 6))) (?v_9 (<= (- (- (* (- 16) x41) (* 11 x34)) (* 8 x41)) (- 3))) (?v_8 (< (- (- (* (- 12) x9) (* 10 x47)) (* 4 x3)) (- 20)))) (let ((?v_23 (not ?v_8)) (?v_11 (< (* 18 x3) (- 22))) (?v_75 (<= (- (+ (* 2 x29) (* 8 x7)) (* 25 x31)) (- 18)))) (let ((?v_51 (not ?v_75)) (?v_250 (<= (- (+ (* (- 27) x1) (* 2 x19)) (* 12 x13)) 0))) (let ((?v_167 (not ?v_250)) (?v_68 (< (+ (- (* (- 20) x22) (* 5 x42)) (* 25 x32)) 12))) (let ((?v_66 (not ?v_68)) (?v_251 (<= (- (- (* 23 x16) (* 17 x15)) (* 4 x23)) (- 8)))) (let ((?v_49 (not ?v_251)) (?v_21 (< (+ (- (* (- 15) x26) (* 16 x42)) (* 12 x11)) (- 6)))) (let ((?v_43 (not ?v_21)) (?v_64 (not ?v_9)) (?v_204 (< (- (+ (* 12 x28) (* 2 x37)) (* 23 x49)) (- 26)))) (let ((?v_24 (not ?v_204)) (?v_45 (< (+ (* (- 3) x5) (* 19 x17) (* 25 x46)) 22))) (let ((?v_101 (not ?v_45)) (?v_194 (<= (- (+ (* (- 12) x39) (* 9 x9)) (* 23 x45)) (- 22)))) (let ((?v_129 (not ?v_194)) (?v_243 (not ?v_11)) (?v_25 (= (+ (* 16 x22) (* 22 x48) (* 6 x17)) (- 22))) (?v_103 (= (- (- (* (- 20) x40) (* 27 x33)) (* 26 x48)) 18))) (let ((?v_31 (not ?v_103)) (?v_106 (not ?v_5)) (?v_59 (not ?v_25)) (?v_104 (< (+ (- (* (- 14) x12) (* 6 x41)) ?v_48) (- 24)))) (let ((?v_39 (not ?v_104)) (?v_174 (<= (- (- (* 3 x23) (* 20 x39)) (* 7 x33)) (- 23)))) (let ((?v_165 (not ?v_174)) (?v_248 (<= (+ (* (- 26) x3) (* 3 x42) (* 22 x29)) 0))) (let ((?v_81 (not ?v_248)) (?v_89 (<= (+ (* (- 18) x36) (* 16 x30) (* 8 x4)) (- 9)))) (let ((?v_87 (not ?v_89)) (?v_97 (< (- (+ (* (- 15) x37) ?v_47) (* 15 x10)) (- 6))) (?v_164 (<= (+ (- (* 24 x34) ?v_100) (* 19 x7)) (- 13)))) (let ((?v_191 (not ?v_164)) (?v_160 (= (- (+ (* 21 x17) (* 22 x1)) (* 7 x45)) (- 25))) (?v_78 (< (- (- (* (- 3) x9) x32) (* 5 x13)) (- 9))) (?v_134 (< (- (- (* 12 x39) (* 11 x45)) (* 14 x47)) (- 2)))) (let ((?v_183 (not ?v_134)) (?v_155 (<= (- (+ ?v_73 (* 20 x28)) (* 22 x17)) (- 17))) (?v_120 (<= (+ (- (* (- 9) x25) (* 10 x30)) (* 3 x14)) 17)) (?v_221 (not ?v_78)) (?v_145 (< (+ (- (* (- 4) x15) (* 19 x13)) (* 10 x48)) 14)) (?v_162 (<= (- (+ (* 25 x25) (* 21 x5)) 0) (- 13))) (?v_237 (= (- (+ ?v_100 (* 11 x8)) (* 12 x45)) (- 1))) (?v_110 (<= (+ (- (* (- 5) x36) (* 5 x35)) (* 17 x32)) 21)) (?v_147 (distinct (- (+ (* (- 9) x3) (* 25 x37)) (* 7 x13)) 26))) (let ((?v_130 (not ?v_147)) (?v_163 (< (+ (* 5 x44) (* 4 x8) (* 17 x2)) (- 8))) (?v_156 (not ?v_110)) (?v_169 (not ?v_155)) (?v_180 (< (- (- 0 (* 12 x3)) x38) (- 25))) (?v_202 (not ?v_160)) (?v_189 (not ?v_162)) (?v_205 (<= (- (- ?v_175 (* 3 x8)) (* 19 x35)) (- 23)))) (let ((?v_226 (not ?v_205)) (?v_234 (not ?v_163)) (?v_188 (not ?v_112)) (?v_232 (not ?v_97)) (?v_208 (not ?v_120)) (?v_231 (not ?v_145))) (and (and (and (and (and (and (and (and (and (and (and (and (and (and (and (and (and (and (and (and (and (and (and (and (and (and (and (and (and (and (and (and (and (and (and (and (and (and (and (and (and (and (and (and (and (and (and (and (and (and (and (and (and (and (and (and (and (and (and (and (and (and (and (and (and (and (and (and (and (and (and (and (and (and (and (and (and (and (and (and (and (and (and (and (and (and (and (and (and (and (and (and (and (and (and (and (and (and (and (and (and (and (and (and (and (and (and (and (and (and (and (and (and (and (and (and (and (and (and (and (and (and (and (and (and (and (and (and (and (and (and (and (and (and (and (and (and (and (and (and (and (and (and (and (and (and (and (and (and (and (and (and (and (and (and (and (and (and (and (and (and (and (and (and (and (and (and (and (and (and (and (and (and (and (and (and (and (and (and (and (and (and (and (and (and (and (and (and (and (and (and (and (and (and (and (and (and (and (and (and (and (and (and (and (and (and (and (and (and (and (and (and (and (and (and (and (and (and (and (and (and (and (and (and (and (and (and (and (and (and (and (and (and (and (and (and (and (and (and (and (and (and (and (and (and (and (and (and (and (and (and (and (and (and (and (and (and (and (and (and (and (and (and (and (and (and (and (and (and (and (and (and (and (and (and (and (and (and (and (and (and (and (and (and (and (and (and (and (and (and (and (and (and (and (and (and (and (and (and (and (and (and (and (and (and (and (and (and (and (and (and (and (and (and (and (and (and (and (and (and (and (and (and (and (and (and (and (and (and (and (and (and (and (and (and (and (and (and (and (and (and (and (and (and (and (and (and (and (and (and (and (and (and (and (and (and (and (and (and (and (and (and (and (and (and (and (and (and (and (and (and (and (and (and (and (and (and (and (and (and (and (and (and (and (and (and (and (and (and (and (and (and (and (and (and (and (and (and (and (and (and (and (and (and (and (and (and (and (and (and (and (and (and (and (and (and (and (and (and (and (and (and (and (and (and (and (and (and (and (and (and (and (and (and (and (and (and (and (and (and (and (and (and (and (and (and (and (and (and (and (and (and (and (and (and (and (and (and (and (and (and (and (and (and (and (and (and (and (and (and (and (and (and (and (and (and (and (and (and (and (and (and (and (and (and (and (and (and (and (and (and (and (and (and (and (and (and (and (and (and (and (and (and (and (and (and (and (and (and (and (and (and (and (and (and (and (and (and (and (and (and (and (and (and (and (and (and (and (and (and (and (and (and (and (and (and (and (and (and (and (and (and (and (and (and (and (and (and (and (and (and (and (and (and (and (and (and (and (and (and (and (and (and (and (and (and (and (and (and (and (and (and (and (and (and (and (and (and (and (and (and (and (and (and (and (and (and (and (and (and (and (and (and (and (and (and (and (and (and (or (or ?v_3 ?v_36) ?v_29) (or (or ?v_112 ?v_53) ?v_60)) (or (or ?v_61 P36) ?v_190)) (or (or ?v_201 ?v_2) ?v_62)) (or (or ?v_108 ?v_17) ?v_19)) (or (or ?v_142 ?v_102) ?v_5)) (or (or ?v_0 ?v_0) ?v_9)) (or (or ?v_151 P48) ?v_16)) (or (or ?v_23 ?v_1) ?v_28)) (or (or ?v_72 ?v_195) P14)) (or (or P20 ?v_4) ?v_6)) (or (or ?v_2 ?v_11) P24)) (or (or ?v_199 ?v_3) ?v_92)) (or (or ?v_51 ?v_27) ?v_13)) (or (or ?v_167 ?v_10) ?v_4)) (or (or ?v_70 ?v_93) ?v_99)) (or (or ?v_5 P14) ?v_34)) (or (or ?v_244 ?v_6) ?v_7)) (or (or ?v_32 ?v_66) ?v_49)) (or (or ?v_40 ?v_126) ?v_33)) (or (or ?v_63 ?v_14) P23)) (or (or ?v_114 ?v_222) ?v_43)) (or (or ?v_131 ?v_8) ?v_15)) (or (or ?v_4 P36) ?v_20)) (or (or P6 ?v_179) ?v_64)) (or (or ?v_24 ?v_101) ?v_129)) (or (or P31 ?v_38) ?v_18)) (or (or ?v_8 ?v_157) ?v_22)) (or (or ?v_243 P11) ?v_186)) (or (or ?v_44 ?v_184) ?v_12)) (or (or ?v_13 ?v_2) ?v_14)) (or (or ?v_146 ?v_15) ?v_16)) (or (or ?v_54 P35) ?v_37)) (or (or ?v_17 ?v_18) ?v_19)) (or (or ?v_20 ?v_7) P19)) (or (or P42 ?v_17) P19)) (or (or ?v_55 ?v_133) P22)) (or (or ?v_25 P2) ?v_21)) (or (or ?v_58 P15) ?v_31)) (or (or ?v_22 P27) ?v_23)) (or (or ?v_106 ?v_24) ?v_59)) (or (or ?v_56 ?v_39) ?v_65)) (or (or ?v_27 ?v_13) ?v_121)) (or (or ?v_86 ?v_28) ?v_105)) (or (or ?v_132 ?v_113) ?v_165)) (or (or ?v_30 ?v_14) ?v_76)) (or (or ?v_81 ?v_153) ?v_31)) (or (or ?v_87 ?v_32) P34)) (or (or P49 ?v_33) ?v_97)) (or (or ?v_34 ?v_35) ?v_176)) (or (or ?v_150 ?v_37) ?v_181)) (or (or ?v_148 P7) ?v_39)) (or (or ?v_40 ?v_94) ?v_41)) (or (or ?v_191 ?v_12) ?v_19)) (or (or P7 ?v_168) ?v_90)) (or (or ?v_178 ?v_20) ?v_43)) (or (or ?v_44 ?v_117) ?v_12)) (or (or ?v_158 ?v_31) ?v_45)) (or (or ?v_40 ?v_46) ?v_38)) (or (or P17 ?v_141) ?v_249)) (or (or ?v_15 ?v_124) ?v_49)) (or (or P27 ?v_50) ?v_1)) (or (or ?v_115 ?v_67) P42)) (or (or ?v_51 ?v_79) ?v_71)) (or (or ?v_2 ?v_160) ?v_54)) (or (or ?v_55 P43) ?v_140)) (or (or ?v_136 ?v_57) P1)) (or (or ?v_122 ?v_227) ?v_59)) (or (or P17 ?v_60) ?v_61)) (or (or P33 ?v_62) ?v_63)) (or (or ?v_54 ?v_78) ?v_64)) (or (or ?v_14 ?v_183) ?v_33)) (or (or ?v_2 ?v_65) ?v_252)) (or (or P4 ?v_66) ?v_229)) (or (or ?v_57 ?v_200) ?v_240)) (or (or ?v_68 ?v_69) ?v_116)) (or (or ?v_71 ?v_72) ?v_155)) (or (or ?v_217 ?v_138) P29)) (or (or ?v_74 ?v_185) P38)) (or (or ?v_75 P47) ?v_111)) (or (or ?v_98 ?v_214) P23)) (or (or ?v_120 ?v_76) ?v_8)) (or (or ?v_77 ?v_221) P42)) (or (or ?v_79 ?v_72) ?v_50)) (or (or ?v_145 ?v_80) P38)) (or (or ?v_81 ?v_84) P44)) (or (or ?v_83 ?v_24) ?v_91)) (or (or ?v_182 ?v_137) ?v_62)) (or (or ?v_83 P21) ?v_84)) (or (or P33 ?v_85) ?v_86)) (or (or P23 ?v_87) ?v_88)) (or (or ?v_143 ?v_89) ?v_17)) (or (or ?v_119 P29) ?v_91)) (or (or P27 ?v_92) ?v_75)) (or (or ?v_57 ?v_93) P35)) (or (or ?v_162 P2) ?v_78)) (or (or ?v_128 ?v_94) P5)) (or (or ?v_125 ?v_154) ?v_61)) (or (or P20 ?v_193) ?v_96)) (or (or ?v_97 ?v_98) P16)) (or (or ?v_99 P8) ?v_237)) (or (or ?v_101 ?v_102) ?v_103)) (or (or ?v_104 ?v_110) ?v_105)) (or (or P45 ?v_62) ?v_106)) (or (or ?v_1 ?v_90) ?v_107)) (or (or ?v_50 ?v_108) ?v_109)) (or (or ?v_110 ?v_111) P47)) (or (or ?v_130 P33) ?v_80)) (or (or P20 ?v_41) ?v_86)) (or (or ?v_112 ?v_4) ?v_38)) (or (or ?v_18 ?v_68) ?v_152)) (or (or ?v_113 ?v_114) P19)) (or (or ?v_12 P47) P4)) (or (or ?v_211 ?v_20) ?v_11)) (or (or ?v_115 ?v_106) ?v_86)) (or (or ?v_66 ?v_135) ?v_116)) (or (or ?v_108 P32) P11)) (or (or P26 ?v_117) ?v_101)) (or (or ?v_173 P43) ?v_67)) (or (or ?v_118 P41) ?v_56)) (or (or ?v_109 ?v_119) ?v_44)) (or (or ?v_13 ?v_99) ?v_120)) (or (or ?v_88 P17) ?v_121)) (or (or ?v_122 ?v_1) P42)) (or (or ?v_123 ?v_8) ?v_96)) (or (or ?v_45 P18) P10)) (or (or ?v_124 ?v_62) ?v_125)) (or (or ?v_198 ?v_127) ?v_70)) (or (or P32 ?v_2) ?v_128)) (or (or ?v_122 ?v_129) ?v_130)) (or (or ?v_97 ?v_27) ?v_131)) (or (or ?v_132 ?v_133) ?v_134)) (or (or ?v_55 ?v_135) P29)) (or (or ?v_210 ?v_65) ?v_137)) (or (or (not ?v_138) ?v_85) P16)) (or (or ?v_87 ?v_139) ?v_159)) (or (or ?v_140 ?v_130) ?v_58)) (or (or ?v_141 ?v_142) ?v_78)) (or (or ?v_39 ?v_223) ?v_163)) (or (or ?v_24 ?v_171) ?v_144)) (or (or ?v_141 ?v_89) ?v_142)) (or (or P31 P40) ?v_102)) (or (or ?v_66 ?v_145) ?v_170)) (or (or P11 ?v_132) ?v_135)) (or (or P11 ?v_127) ?v_254)) (or (or ?v_138 ?v_99) ?v_129)) (or (or P35 ?v_10) ?v_72)) (or (or ?v_219 ?v_146) ?v_172)) (or (or ?v_215 ?v_147) P8)) (or (or ?v_87 ?v_76) P13)) (or (or ?v_1 ?v_148) ?v_156)) (or (or ?v_247 ?v_15) P39)) (or (or P32 ?v_38) ?v_149)) (or (or ?v_113 ?v_150) ?v_151)) (or (or ?v_152 ?v_220) ?v_98)) (or (or ?v_88 ?v_3) ?v_153)) (or (or ?v_39 ?v_96) P12)) (or (or P2 ?v_154) ?v_27)) (or (or ?v_93 P46) ?v_29)) (or (or ?v_88 ?v_169) ?v_180)) (or (or P47 ?v_133) ?v_156)) (or (or P38 ?v_80) ?v_196)) (or (or ?v_133 ?v_157) ?v_19)) (or (or ?v_158 ?v_159) ?v_202)) (or (or P35 ?v_161) ?v_189)) (or (or ?v_92 ?v_163) ?v_12)) (or (or ?v_164 ?v_67) ?v_143)) (or (or ?v_151 ?v_149) ?v_33)) (or (or ?v_165 ?v_166) P0)) (or (or ?v_167 ?v_203) ?v_113)) (or (or P30 P13) P34)) (or (or ?v_245 ?v_197) ?v_121)) (or (or ?v_53 P44) ?v_169)) (or (or ?v_89 ?v_45) ?v_29)) (or (or ?v_50 ?v_170) ?v_162)) (or (or ?v_151 P29) ?v_86)) (or (or P22 ?v_148) ?v_171)) (or (or P42 ?v_172) ?v_4)) (or (or ?v_173 ?v_84) P34)) (or (or ?v_22 ?v_206) P21)) (or (or ?v_174 ?v_207) ?v_226)) (or (or P19 ?v_15) ?v_225)) (or (or ?v_50 ?v_142) ?v_176)) (or (or ?v_177 ?v_36) ?v_83)) (or (or P36 ?v_178) ?v_179)) (or (or ?v_180 ?v_127) P35)) (or (or P28 P12) ?v_181)) (or (or ?v_168 ?v_174) ?v_234)) (or (or P36 ?v_182) ?v_123)) (or (or P33 ?v_187) ?v_183)) (or (or ?v_135 ?v_188) ?v_97)) (or (or ?v_238 ?v_30) ?v_92)) (or (or ?v_184 ?v_185) ?v_156)) (or (or ?v_91 ?v_65) P41)) (or (or ?v_186 ?v_25) ?v_30)) (or (or ?v_84 ?v_41) ?v_187)) (or (or ?v_168 ?v_188) ?v_135)) (or (or P42 ?v_230) ?v_189)) (or (or ?v_190 P42) ?v_24)) (or (or ?v_187 P48) ?v_18)) (or (or ?v_191 ?v_123) ?v_7)) (or (or ?v_192 ?v_193) ?v_194)) (or (or ?v_195 ?v_3) ?v_54)) (or (or ?v_13 ?v_153) ?v_169)) (or (or ?v_93 ?v_63) ?v_32)) (or (or ?v_39 ?v_33) ?v_232)) (or (or ?v_96 ?v_12) P4)) (or (or ?v_196 P8) ?v_197)) (or (or ?v_114 ?v_187) P7)) (or (or P4 ?v_93) ?v_80)) (or (or ?v_3 ?v_70) ?v_147)) (or (or ?v_239 ?v_10) ?v_151)) (or (or ?v_111 ?v_10) ?v_11)) (or (or P32 P32) ?v_114)) (or (or ?v_154 ?v_198) ?v_199)) (or (or ?v_183 ?v_22) ?v_200)) (or (or P2 ?v_119) ?v_218)) (or (or ?v_167 ?v_28) ?v_201)) (or (or P15 ?v_45) ?v_202)) (or (or ?v_111 ?v_28) ?v_39)) (or (or ?v_132 ?v_16) P6)) (or (or P18 ?v_184) ?v_168)) (or (or ?v_66 ?v_87) P3)) (or (or ?v_198 ?v_107) ?v_111)) (or (or ?v_15 P34) ?v_94)) (or (or P34 ?v_127) ?v_155)) (or (or ?v_191 P5) ?v_151)) (or (or ?v_203 ?v_131) ?v_202)) (or (or ?v_125 ?v_140) ?v_133)) (or (or ?v_208 ?v_204) ?v_147)) (or (or ?v_68 ?v_7) P36)) (or (or P44 ?v_8) ?v_209)) (or (or P26 ?v_85) ?v_170)) (or (or ?v_162 P17) ?v_93)) (or (or ?v_138 ?v_196) ?v_81)) (or (or P49 P38) ?v_167)) (or (or ?v_67 ?v_46) ?v_169)) (or (or ?v_74 ?v_122) ?v_204)) (or (or ?v_145 ?v_147) ?v_12)) (or (or ?v_154 ?v_10) ?v_193)) (or (or P29 ?v_77) ?v_59)) (or (or ?v_246 ?v_199) ?v_205)) (or (or ?v_29 ?v_117) P11)) (or (or P30 ?v_5) ?v_23)) (or (or ?v_206 ?v_207) ?v_68)) (or (or ?v_208 ?v_9) ?v_86)) (or (or ?v_104 ?v_7) ?v_40)) (or (or P17 ?v_209) ?v_210)) (or (or ?v_211 ?v_170) ?v_202)) (or (or P13 ?v_191) ?v_149)) (or (or P37 ?v_188) ?v_53)) (or (or P1 ?v_62) ?v_83)) (or (or ?v_133 ?v_78) ?v_212)) (or (or ?v_191 ?v_133) ?v_8)) (or (or P33 ?v_160) ?v_235)) (or (or ?v_33 ?v_126) ?v_81)) (or (or ?v_213 ?v_216) P1)) (or (or P1 P19) ?v_131)) (or (or P29 ?v_66) ?v_172)) (or (or ?v_141 ?v_215) ?v_33)) (or (or ?v_14 ?v_170) ?v_57)) (or (or ?v_216 ?v_140) P21)) (or (or ?v_121 P26) P4)) (or (or ?v_85 ?v_9) ?v_92)) (or (or ?v_27 ?v_79) P9)) (or (or ?v_132 ?v_116) ?v_118)) (or (or ?v_78 ?v_128) ?v_12)) (or (or ?v_103 ?v_190) ?v_217)) (or (or ?v_130 ?v_139) ?v_134)) (or (or ?v_198 P19) P6)) (or (or ?v_11 ?v_218) ?v_147)) (or (or ?v_155 P28) ?v_180)) (or (or ?v_1 ?v_154) ?v_112)) (or (or P22 P30) ?v_228)) (or (or P40 ?v_128) ?v_107)) (or (or P35 P17) ?v_219)) (or (or ?v_69 ?v_25) ?v_45)) (or (or ?v_220 P24) ?v_192)) (or (or ?v_108 P34) ?v_141)) (or (or ?v_31 ?v_176) ?v_135)) (or (or ?v_161 ?v_148) ?v_103)) (or (or ?v_66 ?v_57) ?v_179)) (or (or ?v_88 ?v_221) ?v_208)) (or (or ?v_103 ?v_184) P24)) (or (or ?v_145 ?v_115) ?v_222)) (or (or ?v_223 ?v_58) ?v_194)) (or (or P31 ?v_169) ?v_70)) (or (or ?v_220 ?v_150) ?v_148)) (or (or ?v_152 P42) ?v_133)) (or (or ?v_7 ?v_210) ?v_92)) (or (or ?v_10 ?v_61) ?v_224)) (or (or ?v_14 ?v_79) ?v_13)) (or (or ?v_136 ?v_196) ?v_218)) (or (or P18 ?v_224) ?v_121)) (or (or P2 ?v_41) ?v_136)) (or (or P47 P3) ?v_14)) (or (or ?v_122 ?v_67) ?v_29)) (or (or P17 ?v_19) ?v_58)) (or (or P32 ?v_69) ?v_223)) (or (or P16 ?v_102) ?v_225)) (or (or ?v_226 ?v_207) ?v_187)) (or (or ?v_16 ?v_81) ?v_84)) (or (or P19 ?v_227) ?v_206)) (or (or ?v_214 ?v_228) P37)) (or (or ?v_224 ?v_38) ?v_70)) (or (or ?v_2 ?v_143) ?v_231)) (or (or ?v_229 P3) ?v_140)) (or (or ?v_16 ?v_230) ?v_118)) (or (or ?v_116 ?v_93) P15)) (or (or ?v_49 ?v_67) ?v_6)) (or (or ?v_112 ?v_181) P34)) (or (or ?v_104 ?v_79) ?v_231)) (or (or ?v_220 ?v_186) ?v_121)) (or (or ?v_39 ?v_201) ?v_219)) (or (or ?v_195 ?v_224) ?v_106)) (or (or ?v_70 ?v_35) P10)) (or (or P49 ?v_184) P19)) (or (or ?v_50 ?v_197) ?v_232)) (or (or ?v_160 ?v_5) ?v_191)) (or (or ?v_223 ?v_233) ?v_151)) (or (or P8 ?v_119) ?v_236)) (or (or ?v_63 ?v_194) ?v_234)) (or (or ?v_235 ?v_210) ?v_78)) (or (or ?v_110 ?v_101) P13)) (or (or ?v_149 ?v_125) P21)) (or (or ?v_38 ?v_158) P6)) (or (or ?v_66 ?v_90) ?v_22)) (or (or ?v_90 P15) ?v_149)) (or (or ?v_177 P35) ?v_219)) (or (or ?v_253 ?v_222) ?v_8)) (or (or P11 ?v_236) ?v_134)) (or (or ?v_60 ?v_61) ?v_229)) (or (or ?v_83 ?v_108) ?v_237)) (or (or ?v_238 ?v_239) ?v_131)) (or (or ?v_191 P32) ?v_180)) (or (or ?v_237 ?v_87) ?v_120)) (or (or ?v_143 ?v_10) ?v_241)) (or (or ?v_109 P46) ?v_141)) (or (or P42 P22) ?v_180)) (or (or ?v_123 P38) ?v_39)) (or (or ?v_45 ?v_50) ?v_240)) (or (or ?v_230 P32) ?v_29)) (or (or ?v_121 ?v_3) ?v_234)) (or (or ?v_207 ?v_96) P6)) (or (or ?v_223 ?v_74) ?v_169)) (or (or ?v_129 P3) P5)) (or (or ?v_223 ?v_53) ?v_241)) (or (or ?v_242 ?v_139) ?v_14)) (or (or P39 ?v_200) ?v_174)) (or (or ?v_217 ?v_232) ?v_243)) (or (or ?v_128 ?v_244) ?v_160)) (or (or ?v_147 ?v_155) P34)) (or (or ?v_192 ?v_173) ?v_102)) (or (or ?v_113 ?v_70) P33)) (or (or ?v_34 ?v_65) ?v_98)) (or (or ?v_58 ?v_245) ?v_222)) (or (or P33 ?v_111) ?v_97)) (or (or ?v_92 ?v_183) ?v_136)) (or (or ?v_185 ?v_92) ?v_207)) (or (or ?v_234 ?v_169) ?v_246)) (or (or ?v_89 P48) ?v_199)) (or (or ?v_93 P8) ?v_256)) (or (or ?v_142 ?v_1) ?v_205)) (or (or ?v_77 ?v_17) ?v_170)) (or (or ?v_109 ?v_192) ?v_2)) (or (or ?v_109 ?v_247) ?v_81)) (or (or ?v_221 ?v_209) ?v_219)) (or (or ?v_248 ?v_208) ?v_220)) (or (or ?v_68 ?v_24) ?v_154)) (or (or ?v_148 ?v_50) P36)) (or (or ?v_249 P1) ?v_163)) (or (or ?v_208 ?v_92) ?v_218)) (or (or P48 ?v_211) ?v_237)) (or (or ?v_174 ?v_177) ?v_60)) (or (or ?v_76 P48) ?v_185)) (or (or ?v_231 ?v_132) ?v_74)) (or (or ?v_19 ?v_126) ?v_86)) (or (or ?v_92 ?v_154) ?v_145)) (or (or ?v_224 ?v_212) ?v_45)) (or (or ?v_78 ?v_156) ?v_203)) (or (or P49 P46) ?v_162)) (or (or ?v_240 ?v_67) ?v_196)) (or (or ?v_45 ?v_22) ?v_71)) (or (or ?v_156 P16) ?v_217)) (or (or ?v_183 ?v_65) ?v_51)) (or (or ?v_5 P48) ?v_67)) (or (or P43 ?v_164) ?v_66)) (or (or ?v_222 ?v_121) ?v_35)) (or (or ?v_27 ?v_116) ?v_216)) (or (or ?v_152 ?v_122) ?v_248)) (or (or ?v_27 ?v_14) ?v_214)) (or (or P34 ?v_118) ?v_150)) (or (or ?v_200 ?v_83) ?v_223)) (or (or ?v_239 ?v_61) ?v_98)) (or (or ?v_142 P17) ?v_16)) (or (or ?v_116 ?v_85) P25)) (or (or P34 ?v_49) ?v_88)) (or (or ?v_89 ?v_215) ?v_145)) (or (or ?v_0 ?v_125) ?v_182)) (or (or ?v_137 ?v_200) ?v_206)) (or (or ?v_232 ?v_224) ?v_236)) (or (or ?v_213 ?v_230) ?v_68)) (or (or ?v_2 ?v_129) ?v_91)) (or (or ?v_16 ?v_15) P9)) (or (or ?v_157 ?v_176) ?v_16)) (or (or ?v_167 P8) P15)) (or (or ?v_186 ?v_236) ?v_222)) (or (or ?v_57 ?v_22) ?v_208)) (or (or ?v_110 ?v_155) P21)) (or (or ?v_8 P2) ?v_9)) (or (or ?v_222 ?v_69) ?v_60)) (or (or ?v_4 ?v_220) ?v_250)) (or (or P13 ?v_231) ?v_169)) (or (or P35 P41) ?v_103)) (or (or ?v_6 ?v_51) ?v_87)) (or (or ?v_238 ?v_21) ?v_181)) (or (or P13 ?v_61) ?v_122)) (or (or ?v_202 ?v_78) ?v_249)) (or (or ?v_60 ?v_251) ?v_170)) (or (or ?v_143 ?v_19) P25)) (or (or ?v_97 ?v_162) ?v_53)) (or (or ?v_80 ?v_250) ?v_193)) (or (or ?v_174 P37) ?v_62)) (or (or ?v_84 ?v_252) ?v_10)) (or (or ?v_22 ?v_128) ?v_32)) (or (or ?v_153 ?v_231) ?v_136)) (or (or ?v_129 ?v_239) ?v_13)) (or (or ?v_63 ?v_214) ?v_6)) (or (or ?v_207 ?v_179) P18)) (or (or ?v_46 ?v_237) ?v_205)) (or (or ?v_104 ?v_10) P37)) (or (or ?v_86 ?v_208) ?v_80)) (or (or ?v_39 ?v_204) ?v_234)) (or (or ?v_210 ?v_180) ?v_223)) (or (or P15 ?v_53) ?v_132)) (or (or P44 ?v_35) ?v_31)) (or (or ?v_76 ?v_46) ?v_139)) (or (or ?v_211 ?v_245) ?v_226)) (or (or ?v_57 ?v_240) ?v_13)) (or (or ?v_190 ?v_225) P40)) (or (or ?v_203 ?v_7) ?v_155)) (or (or ?v_148 P27) ?v_253)) (or (or ?v_113 ?v_141) P25)) (or (or ?v_41 ?v_156) ?v_103)) (or (or ?v_15 ?v_204) ?v_91)) (or (or ?v_151 ?v_5) ?v_245)) (or (or ?v_144 ?v_22) ?v_132)) (or (or ?v_96 ?v_124) ?v_39)) (or (or ?v_192 ?v_107) ?v_180)) (or (or ?v_153 ?v_221) ?v_157)) (or (or ?v_244 P13) ?v_61)) (or (or ?v_195 ?v_249) ?v_254)) (or (or ?v_132 ?v_93) ?v_32)) (or (or ?v_128 ?v_10) ?v_158)) (or (or P15 ?v_171) ?v_198)) (or (or P33 ?v_81) ?v_199)) (or (or ?v_15 ?v_71) ?v_149)) (or (or ?v_96 ?v_108) ?v_86)) (or (or ?v_208 P34) ?v_244)) (or (or P41 ?v_141) ?v_0)) (or (or ?v_64 P20) ?v_146)) (or (or ?v_50 ?v_200) ?v_59)) (or (or ?v_157 ?v_72) ?v_65)) (or (or P49 ?v_215) P26)) (or (or ?v_0 ?v_69) ?v_165)) (or (or ?v_87 ?v_16) ?v_131)) (or (or ?v_154 ?v_177) ?v_212)) (or (or ?v_156 ?v_6) P33)) (or (or ?v_87 ?v_145) ?v_15)) (or (or ?v_140 ?v_171) ?v_204)) (or (or ?v_0 P33) ?v_133)) (or (or ?v_14 P44) ?v_21)) (or (or ?v_220 ?v_214) P1)) (or (or P13 ?v_218) ?v_41)) (or (or P7 P39) ?v_13)) (or (or ?v_50 ?v_230) ?v_199)) (or (or ?v_25 ?v_151) ?v_214)) (or (or ?v_45 ?v_78) ?v_86)) (or (or ?v_60 P3) ?v_233)) (or (or ?v_189 ?v_106) ?v_168)) (or (or ?v_154 ?v_202) ?v_167)) (or (or ?v_107 ?v_116) P9)) (or (or ?v_35 ?v_102) P12)) (or (or ?v_176 ?v_55) ?v_57)) (or (or ?v_142 ?v_118) ?v_96)) (or (or ?v_122 ?v_154) ?v_5)) (or (or ?v_171 ?v_19) ?v_87)) (or (or ?v_255 ?v_215) ?v_193)) (or (or ?v_189 ?v_170) P47)) (or (or ?v_9 ?v_28) ?v_255)) (or (or ?v_98 ?v_143) ?v_88)) (or (or ?v_108 ?v_171) ?v_182)) (or (or ?v_234 ?v_70) ?v_98)) (or (or ?v_187 ?v_123) ?v_23)) (or (or ?v_129 ?v_179) P0)) (or (or ?v_166 P25) ?v_56)) (or (or ?v_192 ?v_96) ?v_126)) (or (or ?v_0 P44) ?v_256)) (or (or P16 P31) ?v_93)) (or (or P30 ?v_118) ?v_189)) (or (or ?v_141 ?v_38) ?v_199)) (or (or ?v_244 ?v_63) P48)) (or (or ?v_75 P12) ?v_211)) (or (or ?v_183 ?v_119) ?v_218)) (or (or P13 ?v_142) ?v_54)) (or (or ?v_58 ?v_137) ?v_138)) (or (or ?v_51 ?v_134) ?v_191)) (or (or P25 ?v_143) P27)) (or (or ?v_134 ?v_229) ?v_32)) (or (or ?v_251 ?v_220) ?v_35)) (or (or ?v_228 ?v_245) ?v_237)) (or (or ?v_246 ?v_70) P48)) (or (or ?v_94 ?v_24) ?v_98)) (or (or ?v_248 ?v_88) ?v_253)) (or (or ?v_172 ?v_165) ?v_240)) (or (or ?v_50 ?v_86) ?v_161)) (or (or P41 ?v_148) ?v_70)) (or (or P42 ?v_80) ?v_246)) (or (or ?v_69 ?v_122) P29)) (or (or P19 ?v_128) ?v_166)) (or (or P27 ?v_99) (not ?v_180))) (or (or ?v_46 ?v_235) ?v_182)) (or (or ?v_140 ?v_77) ?v_101)) (or (or ?v_58 P41) ?v_187)) (or (or ?v_148 ?v_25) P28)) (or (or ?v_76 ?v_105) ?v_137)) (or (or ?v_238 ?v_192) ?v_217)) (or (or ?v_172 ?v_134) P11)) (or (or ?v_228 P1) ?v_120)) (or (or P45 ?v_234) ?v_49)) (or (or ?v_224 ?v_236) ?v_246)) (or (or ?v_19 ?v_208) P0)) (or (or P3 ?v_8) ?v_90)) (or (or ?v_169 P41) ?v_97)) (or (or ?v_99 ?v_44) ?v_1)) (or (or P48 P25) ?v_176)) (or (or ?v_125 ?v_198) ?v_44)) (or (or ?v_57 ?v_147) ?v_137)) (or (or ?v_61 ?v_55) P35)) (or (or ?v_188 ?v_88) ?v_46)) (or (or P23 ?v_39) ?v_64)) (or (or ?v_173 ?v_168) ?v_233)) (or (or P33 ?v_9) ?v_167)) (or (or ?v_134 ?v_67) ?v_196)) (or (or ?v_67 ?v_35) P21)) (or (or ?v_149 ?v_75) ?v_213)) (or (or P4 ?v_240) ?v_173)) (or (or ?v_241 ?v_11) ?v_99)) (or (or ?v_254 ?v_38) ?v_239)) (or (or ?v_15 P42) ?v_153)) (or (or ?v_222 P43) ?v_159)) (or (or ?v_182 ?v_116) ?v_85)) (or (or ?v_223 ?v_43) P28)) (or (or ?v_115 ?v_122) ?v_69)) (or (or ?v_176 ?v_207) P36)) (or (or ?v_19 ?v_238) ?v_232)) (or (or ?v_140 ?v_144) ?v_214)) (or (or ?v_91 ?v_5) P21)) (or (or ?v_130 ?v_156) ?v_136)) (or (or ?v_60 ?v_118) ?v_197)) (or (or ?v_219 ?v_238) ?v_182)) (or (or ?v_220 ?v_121) ?v_31)) (or (or ?v_213 P30) ?v_254)) (or (or ?v_224 ?v_255) ?v_164)) (or (or ?v_6 ?v_199) ?v_253)) (or (or ?v_208 ?v_88) ?v_184)) (or (or ?v_144 P40) ?v_6)) (or (or ?v_142 ?v_236) ?v_23)) (or (or ?v_39 ?v_135) ?v_161)) (or (or ?v_69 ?v_193) ?v_31)) (or (or ?v_119 P33) ?v_174)) (or (or ?v_13 ?v_106) ?v_25)) (or (or ?v_186 P30) ?v_78)) (or (or ?v_220 ?v_17) ?v_239)) (or (or ?v_125 ?v_68) ?v_162)) (or (or ?v_198 ?v_41) ?v_232)) (or (or P10 ?v_244) ?v_183)) (or (or P15 ?v_6) ?v_154)) (or (or ?v_29 ?v_237) ?v_127)) (or (or ?v_37 ?v_141) ?v_131)) (or (or ?v_85 ?v_67) ?v_142)) (or (or ?v_142 P2) ?v_140)) (or (or ?v_66 ?v_146) P31)) (or (or ?v_231 ?v_149) ?v_241)) (or (or ?v_133 P11) ?v_91)) (or (or P46 ?v_209) P24)) (or (or ?v_46 ?v_176) P32)) (or (or ?v_60 ?v_176) ?v_174)) (or (or ?v_134 ?v_44) ?v_155)) (or (or ?v_25 P19) ?v_159)) (or (or ?v_29 ?v_59) P25)) (or (or ?v_110 ?v_90) P36)) (or (or ?v_203 ?v_156) P23)) (or (or ?v_93 ?v_32) ?v_154)) (or (or ?v_181 ?v_60) ?v_158)) (or (or ?v_64 ?v_188) ?v_89)) (or (or ?v_222 ?v_174) ?v_223)) (or (or ?v_202 ?v_155) P49)) (or (or ?v_157 ?v_155) ?v_240)) (or (or ?v_129 ?v_14) ?v_198))))))))))))))))))))))))))))))))))))
(check-sat)
(exit)
